language Essence 1.3

letting graph be
        function((1, 2) --> red, (1, 3) --> red, (1, 4) --> red, (1, 5) --> red, (1, 6) --> red, (1, 7) --> red,
                 (1, 8) --> red, (1, 9) --> red, (1, 10) --> red, (1, 11) --> red, (1, 12) --> red, (1, 13) --> red,
                 (1, 14) --> red, (2, 1) --> red, (2, 3) --> red, (2, 4) --> red, (2, 5) --> red, (2, 6) --> red,
                 (2, 7) --> blue, (2, 8) --> blue, (2, 9) --> blue, (2, 10) --> blue, (2, 11) --> blue,
                 (2, 12) --> blue, (2, 13) --> blue, (2, 14) --> blue, (3, 1) --> red, (3, 2) --> red, (3, 4) --> blue,
                 (3, 5) --> blue, (3, 6) --> blue, (3, 7) --> red, (3, 8) --> red, (3, 9) --> red, (3, 10) --> blue,
                 (3, 11) --> blue, (3, 12) --> blue, (3, 13) --> blue, (3, 14) --> blue, (4, 1) --> red, (4, 2) --> red,
                 (4, 3) --> blue, (4, 5) --> blue, (4, 6) --> blue, (4, 7) --> red, (4, 8) --> blue, (4, 9) --> blue,
                 (4, 10) --> red, (4, 11) --> red, (4, 12) --> blue, (4, 13) --> blue, (4, 14) --> blue, (5, 1) --> red,
                 (5, 2) --> red, (5, 3) --> blue, (5, 4) --> blue, (5, 6) --> blue, (5, 7) --> blue, (5, 8) --> red,
                 (5, 9) --> blue, (5, 10) --> blue, (5, 11) --> blue, (5, 12) --> red, (5, 13) --> red,
                 (5, 14) --> blue, (6, 1) --> red, (6, 2) --> red, (6, 3) --> blue, (6, 4) --> blue, (6, 5) --> blue,
                 (6, 7) --> blue, (6, 8) --> blue, (6, 9) --> blue, (6, 10) --> red, (6, 11) --> blue, (6, 12) --> red,
                 (6, 13) --> blue, (6, 14) --> red, (7, 1) --> red, (7, 2) --> blue, (7, 3) --> red, (7, 4) --> red,
                 (7, 5) --> blue, (7, 6) --> blue, (7, 8) --> blue, (7, 9) --> blue, (7, 10) --> blue, (7, 11) --> blue,
                 (7, 12) --> red, (7, 13) --> red, (7, 14) --> blue, (8, 1) --> red, (8, 2) --> blue, (8, 3) --> red,
                 (8, 4) --> blue, (8, 5) --> red, (8, 6) --> blue, (8, 7) --> blue, (8, 9) --> blue, (8, 10) --> red,
                 (8, 11) --> blue, (8, 12) --> blue, (8, 13) --> blue, (8, 14) --> red, (9, 1) --> red, (9, 2) --> blue,
                 (9, 3) --> red, (9, 4) --> blue, (9, 5) --> blue, (9, 6) --> blue, (9, 7) --> blue, (9, 8) --> blue,
                 (9, 10) --> red, (9, 11) --> red, (9, 12) --> blue, (9, 13) --> red, (9, 14) --> blue, (10, 1) --> red,
                 (10, 2) --> blue, (10, 3) --> blue, (10, 4) --> red, (10, 5) --> blue, (10, 6) --> red,
                 (10, 7) --> blue, (10, 8) --> red, (10, 9) --> red, (10, 11) --> blue, (10, 12) --> blue,
                 (10, 13) --> blue, (10, 14) --> blue, (11, 1) --> red, (11, 2) --> blue, (11, 3) --> blue,
                 (11, 4) --> red, (11, 5) --> blue, (11, 6) --> blue, (11, 7) --> blue, (11, 8) --> blue,
                 (11, 9) --> red, (11, 10) --> blue, (11, 12) --> red, (11, 13) --> blue, (11, 14) --> red,
                 (12, 1) --> red, (12, 2) --> blue, (12, 3) --> blue, (12, 4) --> blue, (12, 5) --> red,
                 (12, 6) --> red, (12, 7) --> red, (12, 8) --> blue, (12, 9) --> blue, (12, 10) --> blue,
                 (12, 11) --> red, (12, 13) --> blue, (12, 14) --> blue, (13, 1) --> red, (13, 2) --> blue,
                 (13, 3) --> blue, (13, 4) --> blue, (13, 5) --> red, (13, 6) --> blue, (13, 7) --> red,
                 (13, 8) --> blue, (13, 9) --> red, (13, 10) --> blue, (13, 11) --> blue, (13, 12) --> blue,
                 (13, 14) --> red, (14, 1) --> red, (14, 2) --> blue, (14, 3) --> blue, (14, 4) --> blue,
                 (14, 5) --> blue, (14, 6) --> red, (14, 7) --> blue, (14, 8) --> red, (14, 9) --> blue,
                 (14, 10) --> blue, (14, 11) --> red, (14, 12) --> blue, (14, 13) --> red)
